! rhf sto-3g nori extremescf hcore noautostart bohrs

* xyz 0 1
O   0.000000000000  -0.143225816552   0.000000000000
H   1.638036840407   1.136548822547  -0.000000000000
H  -1.638036840407   1.136548822547  -0.000000000000
*
