$rem
 method hf
 basis sto-3g
 scf_convergence 10
 thresh 14
 scf_guess core
 input_bohr true
 symmetry false
 sym_ignore true
$end

$molecule
 0 1
C  -0.000000000000   0.000000000000   0.000000000000
H   1.183771681898  -1.183771681898  -1.183771681898
H   1.183771681898   1.183771681898   1.183771681898
H  -1.183771681898   1.183771681898  -1.183771681898
H  -1.183771681898  -1.183771681898   1.183771681898
$end
